NAME: toy20_uniform_seed202510281
TYPE: TSP
DIMENSION: 20
EDGE_WEIGHT_TYPE: EUC_2D
NODE_COORD_SECTION
1 768 530
2 564 638
3 776 830
4 358 723
5 129 839
6 204 802
7 961 337
8 15 397
9 509 653
10 307 709
11 345 845
12 921 216
13 717 834
14 458 869
15 549 84
16 919 384
17 948 222
18 617 308
19 477 919
20 190 155
EOF
